
Gurobi 8.1.1 (win64, Python) logging started 12/23/19 02:15:52

Academic license - for non-commercial use only

Gurobi 8.1.1 (win64, Python) logging started 12/23/19 02:20:56

Academic license - for non-commercial use only

Gurobi 8.1.1 (win64, Python) logging started 12/23/19 17:02:46

Academic license - for non-commercial use only

Gurobi 8.1.1 (win64, Python) logging started 12/23/19 19:54:27

Academic license - for non-commercial use only

Gurobi 8.1.1 (win64, Python) logging started 12/23/19 20:04:23

Academic license - for non-commercial use only
